Minimize
  - 12 y_0 - 5 y_2 - 10 y_3 - 6 y_4 - 7 y_5 - 9 y_6 - 7 y_7 - 10 y_8
   - 14 y_9 + 50 x_0_1 + 86 x_0_3 + 73 x_0_4 + 74 x_0_5 + 58 x_0_6
   + 55 x_0_7 + 89 x_0_8 + 18 x_0_9 + 25 x_1_4 + 37 x_1_6 + 26 x_1_7
   + 40 x_1_8 + 54 x_1_9 + 28 x_2_4 + 50 x_2_8 + 60 x_2_9 + 44 x_3_6
   + 37 x_3_7 + 9 x_4_5 + 29 x_4_7 + 24 x_4_8 + 79 x_4_9 + 32 x_5_6
   + 24 x_5_7 + 32 x_5_8 + 82 x_5_9 + 12 x_6_7 + 63 x_6_8 + 71 x_6_9
   + 66 x_7_9 + 91 x_8_9 + 80 Constant
Subject To
 c_0: y_1 = 1
 c_1_0: y_0 >= 1
 c_1_1: y_1 >= 1
 c_1_2: y_2 + y_7 >= 1
 c_1_3: y_3 >= 1
 c_1_4: y_4 + y_5 >= 1
 c_1_5: y_4 + y_5 >= 1
 c_1_6: y_6 >= 1
 c_1_7: y_2 + y_7 >= 1
 c_1_8: y_8 >= 1
 c_1_9: y_9 >= 1
 c_2_0: - 2 y_0 + x_0_1 + x_0_3 + x_0_4 + x_0_5 + x_0_6 + x_0_7 + x_0_8
   + x_0_9 = 0
 c_2_1: - 2 y_1 + x_0_1 + x_1_4 + x_1_6 + x_1_7 + x_1_8 + x_1_9 = 0
 c_2_2: - 2 y_2 + x_2_4 + x_2_8 + x_2_9 = 0
 c_2_3: - 2 y_3 + x_0_3 + x_3_6 + x_3_7 = 0
 c_2_4: - 2 y_4 + x_0_4 + x_1_4 + x_2_4 + x_4_5 + x_4_7 + x_4_8 + x_4_9
   = 0
 c_2_5: - 2 y_5 + x_0_5 + x_4_5 + x_5_6 + x_5_7 + x_5_8 + x_5_9 = 0
 c_2_6: - 2 y_6 + x_0_6 + x_1_6 + x_3_6 + x_5_6 + x_6_7 + x_6_8 + x_6_9
   = 0
 c_2_7: - 2 y_7 + x_0_7 + x_1_7 + x_3_7 + x_4_7 + x_5_7 + x_6_7 + x_7_9
   = 0
 c_2_8: - 2 y_8 + x_0_8 + x_1_8 + x_2_8 + x_4_8 + x_5_8 + x_6_8 + x_8_9
   = 0
 c_2_9: - 2 y_9 + x_0_9 + x_1_9 + x_2_9 + x_4_9 + x_5_9 + x_6_9 + x_7_9
   + x_8_9 = 0
Bounds
 Constant = 1
Binaries
 y_0 y_1 y_2 y_3 y_4 y_5 y_6 y_7 y_8 y_9 x_0_1 x_0_3 x_0_4 x_0_5 x_0_6
 x_0_7 x_0_8 x_0_9 x_1_4 x_1_6 x_1_7 x_1_8 x_1_9 x_2_4 x_2_8 x_2_9 x_3_6
 x_3_7 x_4_5 x_4_7 x_4_8 x_4_9 x_5_6 x_5_7 x_5_8 x_5_9 x_6_7 x_6_8 x_6_9
 x_7_9 x_8_9
End
